
******************************************************************************
This program contains Ipopt, a library for large-scale nonlinear optimization.
 Ipopt is released as open source code under the Eclipse Public License (EPL).
         For more information visit https://github.com/coin-or/Ipopt
******************************************************************************

This is Ipopt version 3.14.19, running with linear solver MUMPS 5.8.1.

Number of nonzeros in equality constraint Jacobian...:     4389
Number of nonzeros in inequality constraint Jacobian.:        0
Number of nonzeros in Lagrangian Hessian.............:     1050

Total number of variables............................:     1287
                     variables with only lower bounds:        0
                variables with lower and upper bounds:      457
                     variables with only upper bounds:        0
Total number of equality constraints.................:     1274
Total number of inequality constraints...............:        0
        inequality constraints with only lower bounds:        0
   inequality constraints with lower and upper bounds:        0
        inequality constraints with only upper bounds:        0

iter    objective    inf_pr   inf_du lg(mu)  ||d||  lg(rg) alpha_du alpha_pr  ls
   0  9.8568448e+00 9.72e+01 4.17e-04  -1.0 0.00e+00    -  0.00e+00 0.00e+00   0
   1  9.8740189e+00 1.12e+00 3.02e+01  -1.0 9.69e+01    -  3.12e-02 1.00e+00h  1
   2  9.8678320e+00 1.58e-01 7.77e-02  -1.0 8.22e-01    -  9.65e-01 1.00e+00h  1
   3  9.8686636e+00 1.98e-01 4.80e-01  -1.0 3.81e+00    -  8.00e-01 9.58e-01f  1
   4  9.8736383e+00 1.81e-01 2.31e-03  -1.0 1.13e+00    -  1.00e+00 1.00e+00f  1
   5  9.8626135e+00 5.75e-01 2.28e-03  -1.7 1.06e+00    -  1.00e+00 1.00e+00h  1
   6  9.8635054e+00 4.70e-02 1.25e-04  -1.7 7.46e-01    -  1.00e+00 1.00e+00h  1
   7  9.8629501e+00 9.12e-02 1.27e-04  -2.5 6.76e-01    -  1.00e+00 1.00e+00h  1
   8  9.8625744e+00 3.78e-04 5.78e-06  -2.5 1.41e-01    -  1.00e+00 1.00e+00h  1
   9  9.8619586e+00 3.20e-03 1.07e-02  -3.8 2.38e-01    -  8.21e-01 1.00e+00h  1
iter    objective    inf_pr   inf_du lg(mu)  ||d||  lg(rg) alpha_du alpha_pr  ls
  10  9.8528151e+00 2.45e-03 3.59e-03  -3.8 3.68e+00    -  4.09e-01 1.00e+00h  1
  11  9.8514252e+00 7.72e-05 9.75e-05  -3.8 7.59e-01    -  1.00e+00 1.00e+00h  1
  12  9.8481167e+00 3.75e-04 5.31e-04  -5.7 1.51e+00    -  7.78e-01 1.00e+00h  1
  13  9.8480162e+00 1.72e-04 3.84e-03  -5.7 2.35e-01    -  7.67e-01 5.43e-01h  1
  14  9.8479097e+00 7.76e-06 1.44e-04  -5.7 1.94e-01    -  1.00e+00 9.58e-01f  1
  15  9.8479124e+00 5.94e-06 2.67e-02  -5.7 5.30e-02    -  8.21e-01 2.34e-01f  2
  16  9.8479129e+00 2.75e-10 1.34e-11  -5.7 9.42e-04    -  1.00e+00 1.00e+00h  1
  17  9.8478973e+00 8.71e-09 2.29e-02  -8.6 2.59e-02    -  9.73e-01 4.47e-01h  1
  18  9.8478968e+00 4.28e-09 5.05e-02  -8.6 4.89e-04    -  1.00e+00 5.10e-01h  1
  19  9.8478968e+00 2.97e-11 2.58e-14  -8.6 1.42e-05    -  1.00e+00 1.00e+00f  1

Number of Iterations....: 19

                                   (scaled)                 (unscaled)
Objective...............:   9.8478968137056953e+00    9.8478968137056953e+00
Dual infeasibility......:   2.5751970000875701e-14    2.5751970000875701e-14
Constraint violation....:   2.9656277433793573e-11    2.9656277433793573e-11
Variable bound violation:   0.0000000000000000e+00    0.0000000000000000e+00
Complementarity.........:   2.5402175042845257e-09    2.5402175042845257e-09
Overall NLP error.......:   2.5402175042845257e-09    2.5402175042845257e-09


Number of objective function evaluations             = 21
Number of objective gradient evaluations             = 20
Number of equality constraint evaluations            = 21
Number of inequality constraint evaluations          = 0
Number of equality constraint Jacobian evaluations   = 20
Number of inequality constraint Jacobian evaluations = 0
Number of Lagrangian Hessian evaluations             = 19
Total seconds in IPOPT                               = 0.101

EXIT: Optimal Solution Found.
